c FILE /home/rafael/Documents/HappySet/MIHS/inputs/happygen/output/graph_scale_free_k7_p0.4_v50_20241127_082501.txt
c SOURCE This is a scale-free graph formed for the happy graph colouring problem.
c DESCRIPTION It was generated using the problem generator of Rhyd Lewis
c
c GRAPH STATS
c Seed                             = -1915578931
c Number of Nodes                  = 50
c Number of colours k              = 7
c Number of pre-assignments        = 20
c Number of links per new node     = 5
c Density                          = 0.191837
c 
c The degrees of nodes 1 to 50, respectively, are as follows 
c [25, 23, 23, 21, 19, 17, 16, 16, 15, 13, 12, 12, 12, 11, 11, 10, 10, 9, 9, 9, 9, 8, 8, 8, 7, 7, 
c  7, 7, 7, 6, 6, 6, 6, 5, 5, 5, 5, 5, 5, 5, 5, 5, 5, 5, 5, 5, 5, 5, 5, 5] 
c  
p edge 50 235 7
e 1 2
e 1 5
e 1 6
e 1 7
e 1 8
e 1 9
e 1 10
e 1 11
e 1 13
e 1 14
e 1 15
e 1 16
e 1 19
e 1 21
e 1 23
e 1 25
e 1 26
e 1 27
e 1 28
e 1 35
e 1 38
e 1 40
e 1 41
e 1 43
e 1 48
e 2 3
e 2 4
e 2 5
e 2 7
e 2 8
e 2 10
e 2 12
e 2 15
e 2 17
e 2 19
e 2 20
e 2 21
e 2 22
e 2 23
e 2 24
e 2 30
e 2 33
e 2 38
e 2 39
e 2 40
e 2 44
e 2 45
e 3 4
e 3 5
e 3 6
e 3 7
e 3 8
e 3 9
e 3 10
e 3 12
e 3 13
e 3 14
e 3 17
e 3 20
e 3 23
e 3 24
e 3 25
e 3 26
e 3 32
e 3 34
e 3 35
e 3 37
e 3 38
e 3 47
e 4 5
e 4 6
e 4 7
e 4 9
e 4 10
e 4 11
e 4 12
e 4 15
e 4 18
e 4 25
e 4 27
e 4 28
e 4 33
e 4 39
e 4 40
e 4 42
e 4 45
e 4 48
e 4 50
e 5 6
e 5 7
e 5 8
e 5 9
e 5 10
e 5 11
e 5 14
e 5 15
e 5 19
e 5 23
e 5 27
e 5 29
e 5 42
e 5 43
e 5 46
e 6 7
e 6 9
e 6 10
e 6 11
e 6 12
e 6 13
e 6 16
e 6 17
e 6 19
e 6 27
e 6 29
e 6 37
e 6 46
e 7 8
e 7 10
e 7 14
e 7 20
e 7 23
e 7 26
e 7 30
e 7 34
e 7 36
e 7 47
e 8 11
e 8 13
e 8 15
e 8 16
e 8 17
e 8 22
e 8 28
e 8 29
e 8 32
e 8 42
e 8 49
e 9 14
e 9 16
e 9 21
e 9 22
e 9 31
e 9 33
e 9 36
e 9 38
e 9 42
e 9 47
e 10 12
e 10 13
e 10 22
e 10 31
e 10 41
e 10 47
e 11 18
e 11 22
e 11 26
e 11 27
e 11 32
e 11 43
e 11 47
e 12 16
e 12 18
e 12 26
e 12 30
e 12 31
e 12 41
e 12 49
e 13 20
e 13 24
e 13 30
e 13 32
e 13 37
e 13 44
e 13 49
e 14 18
e 14 21
e 14 38
e 14 39
e 14 42
e 14 45
e 15 18
e 15 25
e 15 31
e 15 34
e 15 48
e 15 50
e 16 19
e 16 33
e 16 35
e 16 37
e 16 44
e 17 18
e 17 34
e 17 37
e 17 40
e 17 44
e 17 48
e 18 20
e 18 21
e 18 44
e 19 24
e 19 28
e 19 33
e 19 36
e 20 29
e 20 32
e 20 35
e 20 36
e 21 24
e 21 45
e 21 46
e 21 50
e 22 25
e 22 39
e 22 46
e 23 35
e 23 43
e 23 45
e 24 28
e 24 39
e 24 50
e 25 36
e 25 43
e 26 30
e 26 50
e 27 34
e 27 41
e 28 31
e 28 48
e 29 33
e 29 46
e 29 49
e 30 49
e 31 41
e 32 40
n 5 4
n 12 5
n 20 4
n 24 2
n 25 4
n 27 4
n 31 5
n 33 5
n 34 4
n 36 4
n 37 7
n 38 3
n 40 6
n 42 4
n 43 4
n 44 1
n 46 4
n 48 1
n 49 5
n 50 2
